1 2
2 19
3 13
4 15
5 16
6 13
7 13
8 10
9 4
10 6
11 8
12 15
13 8
14 14
15 5
16 9
17 2
18 7
19 3
20 20
21 8
22 10
23 2
24 14
25 14
26 4
27 14
28 3
29 3
30 20
31 20
32 20
33 20
34 20
35 12
36 17
37 18
38 18
39 18
40 21
41 18
42 18
43 21
44 11
45 18
46 2
47 17
48 16
49 4
50 2
51 10
52 5
53 7
54 7
55 4
56 5
57 4
58 4
59 5
60 6
61 12
62 12
63 16
64 8
65 12
66 13
67 11
68 10
69 5
70 17
71 5
72 4
73 13
74 2
75 2
76 17
77 17
78 12
79 11
80 8
81 4
82 7
83 14
84 11
85 19
86 10
87 5
88 12
89 15
90 11
91 10
92 13
93 20
94 15
95 15
96 13
97 4
98 6
99 5
100 1
101 14
102 8
103 9
104 4
105 10
106 11
107 9
108 9
109 9
110 1
111 1
112 7
113 1
114 1
115 1
116 1
117 4
118 1
119 9
120 4
121 8
122 4
123 2
124 9
125 3
126 17
127 4
128 11
129 15
130 18
131 18
132 17
133 18
134 12
135 12
136 19
137 18
138 16
139 5
140 6
141 14
142 17
143 7
144 17
145 3
146 4
147 20
148 12
149 4
150 10
151 20
152 5
153 2
154 2
155 6
156 6
157 17
158 16
159 10
160 15
161 18
162 16
163 13
164 10
165 14
166 7
167 12
168 5
169 2
170 14
171 3
172 17
173 16
174 8
175 11
176 19
177 7
178 15
179 19
180 13
181 20
